n_machines = 3;
n_resources = 6;
n_jobs = 52;
horizon = 24262;
LB = 8087;
n_jobs_per_resource = [2, 16, 6, 12, 1, 15];
duration = [682, 414, 32, 487, 575, 24, 797, 121, 10, 75, 510, 502, 237, 539, 729, 283, 372, 691, 985, 967, 463, 903, 674, 357, 116, 233, 158, 729, 585, 151, 408, 697, 215, 302, 429, 825, 178, 397, 962, 651, 197, 904, 553, 537, 202, 662, 733, 176, 263, 794, 541, 235]